20	5
0	2	2	1
1	1	18
2	1	10
3	1	11
4	1	5
5	1	13
6	2	19	8
7	2	12	6
8	1	14
9	2	17	3
10	1	7
11	3	8	19	18
12	0
13	1	16
14	2	20	4
15	1	6
16	1	21
17	1	21
18	1	21
19	1	21
20	1	21
21	0
0	0	0	0	0	0	0
1	6	2	0	0	3	0
2	8	5	0	1	0	0
3	3	3	0	5	0	2
4	10	2	0	1	0	0
5	5	0	0	4	0	0
6	10	0	0	0	2	5
7	8	0	0	3	2	5
8	9	2	5	5	4	5
9	10	3	2	0	0	5
10	8	1	1	0	1	0
11	3	5	4	3	5	5
12	8	1	0	3	0	0
13	8	4	0	4	0	0
14	7	4	0	0	4	0
15	7	3	4	4	3	2
16	6	0	0	1	0	0
17	2	0	0	0	5	1
18	2	0	0	0	3	0
19	9	0	0	0	0	3
20	9	1	0	2	3	0
21	0	0	0	0	0	0
5	5	5	5	5
